NAME : tsp_355_sol.txt
COMMENT : OR-Tools Guided Local Search
TYPE : TOUR
DIMENSION : 50
COST : 5594
STATUS : ROUTING_SUCCESS
GAP : 0.00% (Reference Solution)
TOUR_SECTION
1
26
25
44
38
14
37
33
29
19
30
47
46
21
28
6
5
9
24
43
23
50
13
18
41
11
12
35
31
34
48
39
7
49
15
17
22
4
10
16
2
40
3
36
32
8
20
42
45
27
-1
